c *********************************
c * Circuit generated by BenCGen
c *
c * CarrySelectAdder_37_37_37_InOut_G4T
c *
c * Ports with 1 gate(s): 65
c * Ports with 2 gate(s): 495
c * Ports with 4 gate(s): 16
c * Total gates: 576
c *********************************
p cnf 650 1835
1 114 0
-1 -114 0
1 -113 0
114 -113 0
-1 -114 113 0
113 131 0
-113 -131 0
1 38 -117 0
-1 38 117 0
1 -38 117 0
-1 -38 -117 0
117 113 -75 0
-117 113 75 0
117 -113 75 0
-117 -113 -75 0
113 -118 0
117 -118 0
-113 -117 118 0
38 -119 0
1 -119 0
-38 -1 119 0
-118 116 0
-119 116 0
118 119 -116 0
2 39 -121 0
-2 39 121 0
2 -39 121 0
-2 -39 -121 0
121 116 -76 0
-121 116 76 0
121 -116 76 0
-121 -116 -76 0
116 -122 0
121 -122 0
-116 -121 122 0
39 -123 0
2 -123 0
-39 -2 123 0
-122 120 0
-123 120 0
122 123 -120 0
3 40 -125 0
-3 40 125 0
3 -40 125 0
-3 -40 -125 0
125 120 -77 0
-125 120 77 0
125 -120 77 0
-125 -120 -77 0
120 -126 0
125 -126 0
-120 -125 126 0
40 -127 0
3 -127 0
-40 -3 127 0
-126 124 0
-127 124 0
126 127 -124 0
4 41 -128 0
-4 41 128 0
4 -41 128 0
-4 -41 -128 0
128 124 -78 0
-128 124 78 0
128 -124 78 0
-128 -124 -78 0
124 -129 0
128 -129 0
-124 -128 129 0
41 -130 0
4 -130 0
-41 -4 130 0
-129 115 0
-130 115 0
129 130 -115 0
5 42 -142 0
-5 42 142 0
5 -42 142 0
-5 -42 -142 0
142 113 -132 0
-142 113 132 0
142 -113 132 0
-142 -113 -132 0
113 -143 0
142 -143 0
-113 -142 143 0
42 -144 0
5 -144 0
-42 -5 144 0
-143 141 0
-144 141 0
143 144 -141 0
6 43 -146 0
-6 43 146 0
6 -43 146 0
-6 -43 -146 0
146 141 -133 0
-146 141 133 0
146 -141 133 0
-146 -141 -133 0
141 -147 0
146 -147 0
-141 -146 147 0
43 -148 0
6 -148 0
-43 -6 148 0
-147 145 0
-148 145 0
147 148 -145 0
7 44 -150 0
-7 44 150 0
7 -44 150 0
-7 -44 -150 0
150 145 -134 0
-150 145 134 0
150 -145 134 0
-150 -145 -134 0
145 -151 0
150 -151 0
-145 -150 151 0
44 -152 0
7 -152 0
-44 -7 152 0
-151 149 0
-152 149 0
151 152 -149 0
8 45 -153 0
-8 45 153 0
8 -45 153 0
-8 -45 -153 0
153 149 -135 0
-153 149 135 0
153 -149 135 0
-153 -149 -135 0
149 -154 0
153 -154 0
-149 -153 154 0
45 -155 0
8 -155 0
-45 -8 155 0
-154 140 0
-155 140 0
154 155 -140 0
142 -156 0
146 -156 0
150 -156 0
153 -156 0
-142 -146 -150 -153 156 0
155 -157 0
-155 157 0
5 42 -160 0
-5 42 160 0
5 -42 160 0
-5 -42 -160 0
160 131 -136 0
-160 131 136 0
160 -131 136 0
-160 -131 -136 0
131 -161 0
160 -161 0
-131 -160 161 0
42 -162 0
5 -162 0
-42 -5 162 0
-161 159 0
-162 159 0
161 162 -159 0
6 43 -164 0
-6 43 164 0
6 -43 164 0
-6 -43 -164 0
164 159 -137 0
-164 159 137 0
164 -159 137 0
-164 -159 -137 0
159 -165 0
164 -165 0
-159 -164 165 0
43 -166 0
6 -166 0
-43 -6 166 0
-165 163 0
-166 163 0
165 166 -163 0
7 44 -168 0
-7 44 168 0
7 -44 168 0
-7 -44 -168 0
168 163 -138 0
-168 163 138 0
168 -163 138 0
-168 -163 -138 0
163 -169 0
168 -169 0
-163 -168 169 0
44 -170 0
7 -170 0
-44 -7 170 0
-169 167 0
-170 167 0
169 170 -167 0
8 45 -171 0
-8 45 171 0
8 -45 171 0
-8 -45 -171 0
171 167 -139 0
-171 167 139 0
171 -167 139 0
-171 -167 -139 0
167 -172 0
171 -172 0
-167 -171 172 0
45 -173 0
8 -173 0
-45 -8 173 0
-172 158 0
-173 158 0
172 173 -158 0
160 -174 0
164 -174 0
168 -174 0
171 -174 0
-160 -164 -168 -171 174 0
173 -175 0
-173 175 0
9 46 -204 0
-9 46 204 0
9 -46 204 0
-9 -46 -204 0
204 113 -194 0
-204 113 194 0
204 -113 194 0
-204 -113 -194 0
113 -205 0
204 -205 0
-113 -204 205 0
46 -206 0
9 -206 0
-46 -9 206 0
-205 203 0
-206 203 0
205 206 -203 0
10 47 -208 0
-10 47 208 0
10 -47 208 0
-10 -47 -208 0
208 203 -195 0
-208 203 195 0
208 -203 195 0
-208 -203 -195 0
203 -209 0
208 -209 0
-203 -208 209 0
47 -210 0
10 -210 0
-47 -10 210 0
-209 207 0
-210 207 0
209 210 -207 0
11 48 -212 0
-11 48 212 0
11 -48 212 0
-11 -48 -212 0
212 207 -196 0
-212 207 196 0
212 -207 196 0
-212 -207 -196 0
207 -213 0
212 -213 0
-207 -212 213 0
48 -214 0
11 -214 0
-48 -11 214 0
-213 211 0
-214 211 0
213 214 -211 0
12 49 -215 0
-12 49 215 0
12 -49 215 0
-12 -49 -215 0
215 211 -197 0
-215 211 197 0
215 -211 197 0
-215 -211 -197 0
211 -216 0
215 -216 0
-211 -215 216 0
49 -217 0
12 -217 0
-49 -12 217 0
-216 202 0
-217 202 0
216 217 -202 0
204 -218 0
208 -218 0
212 -218 0
215 -218 0
-204 -208 -212 -215 218 0
217 -219 0
-217 219 0
9 46 -222 0
-9 46 222 0
9 -46 222 0
-9 -46 -222 0
222 131 -198 0
-222 131 198 0
222 -131 198 0
-222 -131 -198 0
131 -223 0
222 -223 0
-131 -222 223 0
46 -224 0
9 -224 0
-46 -9 224 0
-223 221 0
-224 221 0
223 224 -221 0
10 47 -226 0
-10 47 226 0
10 -47 226 0
-10 -47 -226 0
226 221 -199 0
-226 221 199 0
226 -221 199 0
-226 -221 -199 0
221 -227 0
226 -227 0
-221 -226 227 0
47 -228 0
10 -228 0
-47 -10 228 0
-227 225 0
-228 225 0
227 228 -225 0
11 48 -230 0
-11 48 230 0
11 -48 230 0
-11 -48 -230 0
230 225 -200 0
-230 225 200 0
230 -225 200 0
-230 -225 -200 0
225 -231 0
230 -231 0
-225 -230 231 0
48 -232 0
11 -232 0
-48 -11 232 0
-231 229 0
-232 229 0
231 232 -229 0
12 49 -233 0
-12 49 233 0
12 -49 233 0
-12 -49 -233 0
233 229 -201 0
-233 229 201 0
233 -229 201 0
-233 -229 -201 0
229 -234 0
233 -234 0
-229 -233 234 0
49 -235 0
12 -235 0
-49 -12 235 0
-234 220 0
-235 220 0
234 235 -220 0
222 -236 0
226 -236 0
230 -236 0
233 -236 0
-222 -226 -230 -233 236 0
235 -237 0
-235 237 0
13 50 -266 0
-13 50 266 0
13 -50 266 0
-13 -50 -266 0
266 113 -256 0
-266 113 256 0
266 -113 256 0
-266 -113 -256 0
113 -267 0
266 -267 0
-113 -266 267 0
50 -268 0
13 -268 0
-50 -13 268 0
-267 265 0
-268 265 0
267 268 -265 0
14 51 -270 0
-14 51 270 0
14 -51 270 0
-14 -51 -270 0
270 265 -257 0
-270 265 257 0
270 -265 257 0
-270 -265 -257 0
265 -271 0
270 -271 0
-265 -270 271 0
51 -272 0
14 -272 0
-51 -14 272 0
-271 269 0
-272 269 0
271 272 -269 0
15 52 -274 0
-15 52 274 0
15 -52 274 0
-15 -52 -274 0
274 269 -258 0
-274 269 258 0
274 -269 258 0
-274 -269 -258 0
269 -275 0
274 -275 0
-269 -274 275 0
52 -276 0
15 -276 0
-52 -15 276 0
-275 273 0
-276 273 0
275 276 -273 0
16 53 -277 0
-16 53 277 0
16 -53 277 0
-16 -53 -277 0
277 273 -259 0
-277 273 259 0
277 -273 259 0
-277 -273 -259 0
273 -278 0
277 -278 0
-273 -277 278 0
53 -279 0
16 -279 0
-53 -16 279 0
-278 264 0
-279 264 0
278 279 -264 0
266 -280 0
270 -280 0
274 -280 0
277 -280 0
-266 -270 -274 -277 280 0
279 -281 0
-279 281 0
13 50 -284 0
-13 50 284 0
13 -50 284 0
-13 -50 -284 0
284 131 -260 0
-284 131 260 0
284 -131 260 0
-284 -131 -260 0
131 -285 0
284 -285 0
-131 -284 285 0
50 -286 0
13 -286 0
-50 -13 286 0
-285 283 0
-286 283 0
285 286 -283 0
14 51 -288 0
-14 51 288 0
14 -51 288 0
-14 -51 -288 0
288 283 -261 0
-288 283 261 0
288 -283 261 0
-288 -283 -261 0
283 -289 0
288 -289 0
-283 -288 289 0
51 -290 0
14 -290 0
-51 -14 290 0
-289 287 0
-290 287 0
289 290 -287 0
15 52 -292 0
-15 52 292 0
15 -52 292 0
-15 -52 -292 0
292 287 -262 0
-292 287 262 0
292 -287 262 0
-292 -287 -262 0
287 -293 0
292 -293 0
-287 -292 293 0
52 -294 0
15 -294 0
-52 -15 294 0
-293 291 0
-294 291 0
293 294 -291 0
16 53 -295 0
-16 53 295 0
16 -53 295 0
-16 -53 -295 0
295 291 -263 0
-295 291 263 0
295 -291 263 0
-295 -291 -263 0
291 -296 0
295 -296 0
-291 -295 296 0
53 -297 0
16 -297 0
-53 -16 297 0
-296 282 0
-297 282 0
296 297 -282 0
284 -298 0
288 -298 0
292 -298 0
295 -298 0
-284 -288 -292 -295 298 0
297 -299 0
-297 299 0
17 54 -328 0
-17 54 328 0
17 -54 328 0
-17 -54 -328 0
328 113 -318 0
-328 113 318 0
328 -113 318 0
-328 -113 -318 0
113 -329 0
328 -329 0
-113 -328 329 0
54 -330 0
17 -330 0
-54 -17 330 0
-329 327 0
-330 327 0
329 330 -327 0
18 55 -332 0
-18 55 332 0
18 -55 332 0
-18 -55 -332 0
332 327 -319 0
-332 327 319 0
332 -327 319 0
-332 -327 -319 0
327 -333 0
332 -333 0
-327 -332 333 0
55 -334 0
18 -334 0
-55 -18 334 0
-333 331 0
-334 331 0
333 334 -331 0
19 56 -336 0
-19 56 336 0
19 -56 336 0
-19 -56 -336 0
336 331 -320 0
-336 331 320 0
336 -331 320 0
-336 -331 -320 0
331 -337 0
336 -337 0
-331 -336 337 0
56 -338 0
19 -338 0
-56 -19 338 0
-337 335 0
-338 335 0
337 338 -335 0
20 57 -339 0
-20 57 339 0
20 -57 339 0
-20 -57 -339 0
339 335 -321 0
-339 335 321 0
339 -335 321 0
-339 -335 -321 0
335 -340 0
339 -340 0
-335 -339 340 0
57 -341 0
20 -341 0
-57 -20 341 0
-340 326 0
-341 326 0
340 341 -326 0
328 -342 0
332 -342 0
336 -342 0
339 -342 0
-328 -332 -336 -339 342 0
341 -343 0
-341 343 0
17 54 -346 0
-17 54 346 0
17 -54 346 0
-17 -54 -346 0
346 131 -322 0
-346 131 322 0
346 -131 322 0
-346 -131 -322 0
131 -347 0
346 -347 0
-131 -346 347 0
54 -348 0
17 -348 0
-54 -17 348 0
-347 345 0
-348 345 0
347 348 -345 0
18 55 -350 0
-18 55 350 0
18 -55 350 0
-18 -55 -350 0
350 345 -323 0
-350 345 323 0
350 -345 323 0
-350 -345 -323 0
345 -351 0
350 -351 0
-345 -350 351 0
55 -352 0
18 -352 0
-55 -18 352 0
-351 349 0
-352 349 0
351 352 -349 0
19 56 -354 0
-19 56 354 0
19 -56 354 0
-19 -56 -354 0
354 349 -324 0
-354 349 324 0
354 -349 324 0
-354 -349 -324 0
349 -355 0
354 -355 0
-349 -354 355 0
56 -356 0
19 -356 0
-56 -19 356 0
-355 353 0
-356 353 0
355 356 -353 0
20 57 -357 0
-20 57 357 0
20 -57 357 0
-20 -57 -357 0
357 353 -325 0
-357 353 325 0
357 -353 325 0
-357 -353 -325 0
353 -358 0
357 -358 0
-353 -357 358 0
57 -359 0
20 -359 0
-57 -20 359 0
-358 344 0
-359 344 0
358 359 -344 0
346 -360 0
350 -360 0
354 -360 0
357 -360 0
-346 -350 -354 -357 360 0
359 -361 0
-359 361 0
21 58 -390 0
-21 58 390 0
21 -58 390 0
-21 -58 -390 0
390 113 -380 0
-390 113 380 0
390 -113 380 0
-390 -113 -380 0
113 -391 0
390 -391 0
-113 -390 391 0
58 -392 0
21 -392 0
-58 -21 392 0
-391 389 0
-392 389 0
391 392 -389 0
22 59 -394 0
-22 59 394 0
22 -59 394 0
-22 -59 -394 0
394 389 -381 0
-394 389 381 0
394 -389 381 0
-394 -389 -381 0
389 -395 0
394 -395 0
-389 -394 395 0
59 -396 0
22 -396 0
-59 -22 396 0
-395 393 0
-396 393 0
395 396 -393 0
23 60 -398 0
-23 60 398 0
23 -60 398 0
-23 -60 -398 0
398 393 -382 0
-398 393 382 0
398 -393 382 0
-398 -393 -382 0
393 -399 0
398 -399 0
-393 -398 399 0
60 -400 0
23 -400 0
-60 -23 400 0
-399 397 0
-400 397 0
399 400 -397 0
24 61 -401 0
-24 61 401 0
24 -61 401 0
-24 -61 -401 0
401 397 -383 0
-401 397 383 0
401 -397 383 0
-401 -397 -383 0
397 -402 0
401 -402 0
-397 -401 402 0
61 -403 0
24 -403 0
-61 -24 403 0
-402 388 0
-403 388 0
402 403 -388 0
390 -404 0
394 -404 0
398 -404 0
401 -404 0
-390 -394 -398 -401 404 0
403 -405 0
-403 405 0
21 58 -408 0
-21 58 408 0
21 -58 408 0
-21 -58 -408 0
408 131 -384 0
-408 131 384 0
408 -131 384 0
-408 -131 -384 0
131 -409 0
408 -409 0
-131 -408 409 0
58 -410 0
21 -410 0
-58 -21 410 0
-409 407 0
-410 407 0
409 410 -407 0
22 59 -412 0
-22 59 412 0
22 -59 412 0
-22 -59 -412 0
412 407 -385 0
-412 407 385 0
412 -407 385 0
-412 -407 -385 0
407 -413 0
412 -413 0
-407 -412 413 0
59 -414 0
22 -414 0
-59 -22 414 0
-413 411 0
-414 411 0
413 414 -411 0
23 60 -416 0
-23 60 416 0
23 -60 416 0
-23 -60 -416 0
416 411 -386 0
-416 411 386 0
416 -411 386 0
-416 -411 -386 0
411 -417 0
416 -417 0
-411 -416 417 0
60 -418 0
23 -418 0
-60 -23 418 0
-417 415 0
-418 415 0
417 418 -415 0
24 61 -419 0
-24 61 419 0
24 -61 419 0
-24 -61 -419 0
419 415 -387 0
-419 415 387 0
419 -415 387 0
-419 -415 -387 0
415 -420 0
419 -420 0
-415 -419 420 0
61 -421 0
24 -421 0
-61 -24 421 0
-420 406 0
-421 406 0
420 421 -406 0
408 -422 0
412 -422 0
416 -422 0
419 -422 0
-408 -412 -416 -419 422 0
421 -423 0
-421 423 0
25 62 -452 0
-25 62 452 0
25 -62 452 0
-25 -62 -452 0
452 113 -442 0
-452 113 442 0
452 -113 442 0
-452 -113 -442 0
113 -453 0
452 -453 0
-113 -452 453 0
62 -454 0
25 -454 0
-62 -25 454 0
-453 451 0
-454 451 0
453 454 -451 0
26 63 -456 0
-26 63 456 0
26 -63 456 0
-26 -63 -456 0
456 451 -443 0
-456 451 443 0
456 -451 443 0
-456 -451 -443 0
451 -457 0
456 -457 0
-451 -456 457 0
63 -458 0
26 -458 0
-63 -26 458 0
-457 455 0
-458 455 0
457 458 -455 0
27 64 -460 0
-27 64 460 0
27 -64 460 0
-27 -64 -460 0
460 455 -444 0
-460 455 444 0
460 -455 444 0
-460 -455 -444 0
455 -461 0
460 -461 0
-455 -460 461 0
64 -462 0
27 -462 0
-64 -27 462 0
-461 459 0
-462 459 0
461 462 -459 0
28 65 -463 0
-28 65 463 0
28 -65 463 0
-28 -65 -463 0
463 459 -445 0
-463 459 445 0
463 -459 445 0
-463 -459 -445 0
459 -464 0
463 -464 0
-459 -463 464 0
65 -465 0
28 -465 0
-65 -28 465 0
-464 450 0
-465 450 0
464 465 -450 0
452 -466 0
456 -466 0
460 -466 0
463 -466 0
-452 -456 -460 -463 466 0
465 -467 0
-465 467 0
25 62 -470 0
-25 62 470 0
25 -62 470 0
-25 -62 -470 0
470 131 -446 0
-470 131 446 0
470 -131 446 0
-470 -131 -446 0
131 -471 0
470 -471 0
-131 -470 471 0
62 -472 0
25 -472 0
-62 -25 472 0
-471 469 0
-472 469 0
471 472 -469 0
26 63 -474 0
-26 63 474 0
26 -63 474 0
-26 -63 -474 0
474 469 -447 0
-474 469 447 0
474 -469 447 0
-474 -469 -447 0
469 -475 0
474 -475 0
-469 -474 475 0
63 -476 0
26 -476 0
-63 -26 476 0
-475 473 0
-476 473 0
475 476 -473 0
27 64 -478 0
-27 64 478 0
27 -64 478 0
-27 -64 -478 0
478 473 -448 0
-478 473 448 0
478 -473 448 0
-478 -473 -448 0
473 -479 0
478 -479 0
-473 -478 479 0
64 -480 0
27 -480 0
-64 -27 480 0
-479 477 0
-480 477 0
479 480 -477 0
28 65 -481 0
-28 65 481 0
28 -65 481 0
-28 -65 -481 0
481 477 -449 0
-481 477 449 0
481 -477 449 0
-481 -477 -449 0
477 -482 0
481 -482 0
-477 -481 482 0
65 -483 0
28 -483 0
-65 -28 483 0
-482 468 0
-483 468 0
482 483 -468 0
470 -484 0
474 -484 0
478 -484 0
481 -484 0
-470 -474 -478 -481 484 0
483 -485 0
-483 485 0
29 66 -514 0
-29 66 514 0
29 -66 514 0
-29 -66 -514 0
514 113 -504 0
-514 113 504 0
514 -113 504 0
-514 -113 -504 0
113 -515 0
514 -515 0
-113 -514 515 0
66 -516 0
29 -516 0
-66 -29 516 0
-515 513 0
-516 513 0
515 516 -513 0
30 67 -518 0
-30 67 518 0
30 -67 518 0
-30 -67 -518 0
518 513 -505 0
-518 513 505 0
518 -513 505 0
-518 -513 -505 0
513 -519 0
518 -519 0
-513 -518 519 0
67 -520 0
30 -520 0
-67 -30 520 0
-519 517 0
-520 517 0
519 520 -517 0
31 68 -522 0
-31 68 522 0
31 -68 522 0
-31 -68 -522 0
522 517 -506 0
-522 517 506 0
522 -517 506 0
-522 -517 -506 0
517 -523 0
522 -523 0
-517 -522 523 0
68 -524 0
31 -524 0
-68 -31 524 0
-523 521 0
-524 521 0
523 524 -521 0
32 69 -525 0
-32 69 525 0
32 -69 525 0
-32 -69 -525 0
525 521 -507 0
-525 521 507 0
525 -521 507 0
-525 -521 -507 0
521 -526 0
525 -526 0
-521 -525 526 0
69 -527 0
32 -527 0
-69 -32 527 0
-526 512 0
-527 512 0
526 527 -512 0
514 -528 0
518 -528 0
522 -528 0
525 -528 0
-514 -518 -522 -525 528 0
527 -529 0
-527 529 0
29 66 -532 0
-29 66 532 0
29 -66 532 0
-29 -66 -532 0
532 131 -508 0
-532 131 508 0
532 -131 508 0
-532 -131 -508 0
131 -533 0
532 -533 0
-131 -532 533 0
66 -534 0
29 -534 0
-66 -29 534 0
-533 531 0
-534 531 0
533 534 -531 0
30 67 -536 0
-30 67 536 0
30 -67 536 0
-30 -67 -536 0
536 531 -509 0
-536 531 509 0
536 -531 509 0
-536 -531 -509 0
531 -537 0
536 -537 0
-531 -536 537 0
67 -538 0
30 -538 0
-67 -30 538 0
-537 535 0
-538 535 0
537 538 -535 0
31 68 -540 0
-31 68 540 0
31 -68 540 0
-31 -68 -540 0
540 535 -510 0
-540 535 510 0
540 -535 510 0
-540 -535 -510 0
535 -541 0
540 -541 0
-535 -540 541 0
68 -542 0
31 -542 0
-68 -31 542 0
-541 539 0
-542 539 0
541 542 -539 0
32 69 -543 0
-32 69 543 0
32 -69 543 0
-32 -69 -543 0
543 539 -511 0
-543 539 511 0
543 -539 511 0
-543 -539 -511 0
539 -544 0
543 -544 0
-539 -543 544 0
69 -545 0
32 -545 0
-69 -32 545 0
-544 530 0
-545 530 0
544 545 -530 0
532 -546 0
536 -546 0
540 -546 0
543 -546 0
-532 -536 -540 -543 546 0
545 -547 0
-545 547 0
33 70 -576 0
-33 70 576 0
33 -70 576 0
-33 -70 -576 0
576 113 -566 0
-576 113 566 0
576 -113 566 0
-576 -113 -566 0
113 -577 0
576 -577 0
-113 -576 577 0
70 -578 0
33 -578 0
-70 -33 578 0
-577 575 0
-578 575 0
577 578 -575 0
34 71 -580 0
-34 71 580 0
34 -71 580 0
-34 -71 -580 0
580 575 -567 0
-580 575 567 0
580 -575 567 0
-580 -575 -567 0
575 -581 0
580 -581 0
-575 -580 581 0
71 -582 0
34 -582 0
-71 -34 582 0
-581 579 0
-582 579 0
581 582 -579 0
35 72 -584 0
-35 72 584 0
35 -72 584 0
-35 -72 -584 0
584 579 -568 0
-584 579 568 0
584 -579 568 0
-584 -579 -568 0
579 -585 0
584 -585 0
-579 -584 585 0
72 -586 0
35 -586 0
-72 -35 586 0
-585 583 0
-586 583 0
585 586 -583 0
36 73 -587 0
-36 73 587 0
36 -73 587 0
-36 -73 -587 0
587 583 -569 0
-587 583 569 0
587 -583 569 0
-587 -583 -569 0
583 -588 0
587 -588 0
-583 -587 588 0
73 -589 0
36 -589 0
-73 -36 589 0
-588 574 0
-589 574 0
588 589 -574 0
576 -590 0
580 -590 0
584 -590 0
587 -590 0
-576 -580 -584 -587 590 0
589 -591 0
-589 591 0
33 70 -594 0
-33 70 594 0
33 -70 594 0
-33 -70 -594 0
594 131 -570 0
-594 131 570 0
594 -131 570 0
-594 -131 -570 0
131 -595 0
594 -595 0
-131 -594 595 0
70 -596 0
33 -596 0
-70 -33 596 0
-595 593 0
-596 593 0
595 596 -593 0
34 71 -598 0
-34 71 598 0
34 -71 598 0
-34 -71 -598 0
598 593 -571 0
-598 593 571 0
598 -593 571 0
-598 -593 -571 0
593 -599 0
598 -599 0
-593 -598 599 0
71 -600 0
34 -600 0
-71 -34 600 0
-599 597 0
-600 597 0
599 600 -597 0
35 72 -602 0
-35 72 602 0
35 -72 602 0
-35 -72 -602 0
602 597 -572 0
-602 597 572 0
602 -597 572 0
-602 -597 -572 0
597 -603 0
602 -603 0
-597 -602 603 0
72 -604 0
35 -604 0
-72 -35 604 0
-603 601 0
-604 601 0
603 604 -601 0
36 73 -605 0
-36 73 605 0
36 -73 605 0
-36 -73 -605 0
605 601 -573 0
-605 601 573 0
605 -601 573 0
-605 -601 -573 0
601 -606 0
605 -606 0
-601 -605 606 0
73 -607 0
36 -607 0
-73 -36 607 0
-606 592 0
-607 592 0
606 607 -592 0
594 -608 0
598 -608 0
602 -608 0
605 -608 0
-594 -598 -602 -605 608 0
607 -609 0
-607 609 0
37 74 -631 0
-37 74 631 0
37 -74 631 0
-37 -74 -631 0
631 113 -628 0
-631 113 628 0
631 -113 628 0
-631 -113 -628 0
113 -632 0
631 -632 0
-113 -631 632 0
74 -633 0
37 -633 0
-74 -37 633 0
-632 630 0
-633 630 0
632 633 -630 0
631 -634 0
-631 634 0
633 -635 0
-633 635 0
37 74 -637 0
-37 74 637 0
37 -74 637 0
-37 -74 -637 0
637 131 -629 0
-637 131 629 0
637 -131 629 0
-637 -131 -629 0
131 -638 0
637 -638 0
-131 -637 638 0
74 -639 0
37 -639 0
-74 -37 639 0
-638 636 0
-639 636 0
638 639 -636 0
637 -640 0
-637 640 0
639 -641 0
-639 641 0
115 177 0
-115 -177 0
177 -178 0
132 -178 0
-177 -132 178 0
115 -179 0
136 -179 0
-115 -136 179 0
-178 79 0
-179 79 0
178 179 -79 0
115 180 0
-115 -180 0
180 -181 0
133 -181 0
-180 -133 181 0
115 -182 0
137 -182 0
-115 -137 182 0
-181 80 0
-182 80 0
181 182 -80 0
115 183 0
-115 -183 0
183 -184 0
134 -184 0
-183 -134 184 0
115 -185 0
138 -185 0
-115 -138 185 0
-184 81 0
-185 81 0
184 185 -81 0
115 186 0
-115 -186 0
186 -187 0
135 -187 0
-186 -135 187 0
115 -188 0
139 -188 0
-115 -139 188 0
-187 82 0
-188 82 0
187 188 -82 0
115 189 0
-115 -189 0
189 -190 0
140 -190 0
-189 -140 190 0
115 -191 0
158 -191 0
-115 -158 191 0
-190 176 0
-191 176 0
190 191 -176 0
115 -192 0
174 -192 0
-115 -174 192 0
-192 193 0
-176 193 0
192 176 -193 0
193 239 0
-193 -239 0
239 -240 0
194 -240 0
-239 -194 240 0
193 -241 0
198 -241 0
-193 -198 241 0
-240 83 0
-241 83 0
240 241 -83 0
193 242 0
-193 -242 0
242 -243 0
195 -243 0
-242 -195 243 0
193 -244 0
199 -244 0
-193 -199 244 0
-243 84 0
-244 84 0
243 244 -84 0
193 245 0
-193 -245 0
245 -246 0
196 -246 0
-245 -196 246 0
193 -247 0
200 -247 0
-193 -200 247 0
-246 85 0
-247 85 0
246 247 -85 0
193 248 0
-193 -248 0
248 -249 0
197 -249 0
-248 -197 249 0
193 -250 0
201 -250 0
-193 -201 250 0
-249 86 0
-250 86 0
249 250 -86 0
193 251 0
-193 -251 0
251 -252 0
202 -252 0
-251 -202 252 0
193 -253 0
220 -253 0
-193 -220 253 0
-252 238 0
-253 238 0
252 253 -238 0
193 -254 0
236 -254 0
-193 -236 254 0
-254 255 0
-238 255 0
254 238 -255 0
255 301 0
-255 -301 0
301 -302 0
256 -302 0
-301 -256 302 0
255 -303 0
260 -303 0
-255 -260 303 0
-302 87 0
-303 87 0
302 303 -87 0
255 304 0
-255 -304 0
304 -305 0
257 -305 0
-304 -257 305 0
255 -306 0
261 -306 0
-255 -261 306 0
-305 88 0
-306 88 0
305 306 -88 0
255 307 0
-255 -307 0
307 -308 0
258 -308 0
-307 -258 308 0
255 -309 0
262 -309 0
-255 -262 309 0
-308 89 0
-309 89 0
308 309 -89 0
255 310 0
-255 -310 0
310 -311 0
259 -311 0
-310 -259 311 0
255 -312 0
263 -312 0
-255 -263 312 0
-311 90 0
-312 90 0
311 312 -90 0
255 313 0
-255 -313 0
313 -314 0
264 -314 0
-313 -264 314 0
255 -315 0
282 -315 0
-255 -282 315 0
-314 300 0
-315 300 0
314 315 -300 0
255 -316 0
298 -316 0
-255 -298 316 0
-316 317 0
-300 317 0
316 300 -317 0
317 363 0
-317 -363 0
363 -364 0
318 -364 0
-363 -318 364 0
317 -365 0
322 -365 0
-317 -322 365 0
-364 91 0
-365 91 0
364 365 -91 0
317 366 0
-317 -366 0
366 -367 0
319 -367 0
-366 -319 367 0
317 -368 0
323 -368 0
-317 -323 368 0
-367 92 0
-368 92 0
367 368 -92 0
317 369 0
-317 -369 0
369 -370 0
320 -370 0
-369 -320 370 0
317 -371 0
324 -371 0
-317 -324 371 0
-370 93 0
-371 93 0
370 371 -93 0
317 372 0
-317 -372 0
372 -373 0
321 -373 0
-372 -321 373 0
317 -374 0
325 -374 0
-317 -325 374 0
-373 94 0
-374 94 0
373 374 -94 0
317 375 0
-317 -375 0
375 -376 0
326 -376 0
-375 -326 376 0
317 -377 0
344 -377 0
-317 -344 377 0
-376 362 0
-377 362 0
376 377 -362 0
317 -378 0
360 -378 0
-317 -360 378 0
-378 379 0
-362 379 0
378 362 -379 0
379 425 0
-379 -425 0
425 -426 0
380 -426 0
-425 -380 426 0
379 -427 0
384 -427 0
-379 -384 427 0
-426 95 0
-427 95 0
426 427 -95 0
379 428 0
-379 -428 0
428 -429 0
381 -429 0
-428 -381 429 0
379 -430 0
385 -430 0
-379 -385 430 0
-429 96 0
-430 96 0
429 430 -96 0
379 431 0
-379 -431 0
431 -432 0
382 -432 0
-431 -382 432 0
379 -433 0
386 -433 0
-379 -386 433 0
-432 97 0
-433 97 0
432 433 -97 0
379 434 0
-379 -434 0
434 -435 0
383 -435 0
-434 -383 435 0
379 -436 0
387 -436 0
-379 -387 436 0
-435 98 0
-436 98 0
435 436 -98 0
379 437 0
-379 -437 0
437 -438 0
388 -438 0
-437 -388 438 0
379 -439 0
406 -439 0
-379 -406 439 0
-438 424 0
-439 424 0
438 439 -424 0
379 -440 0
422 -440 0
-379 -422 440 0
-440 441 0
-424 441 0
440 424 -441 0
441 487 0
-441 -487 0
487 -488 0
442 -488 0
-487 -442 488 0
441 -489 0
446 -489 0
-441 -446 489 0
-488 99 0
-489 99 0
488 489 -99 0
441 490 0
-441 -490 0
490 -491 0
443 -491 0
-490 -443 491 0
441 -492 0
447 -492 0
-441 -447 492 0
-491 100 0
-492 100 0
491 492 -100 0
441 493 0
-441 -493 0
493 -494 0
444 -494 0
-493 -444 494 0
441 -495 0
448 -495 0
-441 -448 495 0
-494 101 0
-495 101 0
494 495 -101 0
441 496 0
-441 -496 0
496 -497 0
445 -497 0
-496 -445 497 0
441 -498 0
449 -498 0
-441 -449 498 0
-497 102 0
-498 102 0
497 498 -102 0
441 499 0
-441 -499 0
499 -500 0
450 -500 0
-499 -450 500 0
441 -501 0
468 -501 0
-441 -468 501 0
-500 486 0
-501 486 0
500 501 -486 0
441 -502 0
484 -502 0
-441 -484 502 0
-502 503 0
-486 503 0
502 486 -503 0
503 549 0
-503 -549 0
549 -550 0
504 -550 0
-549 -504 550 0
503 -551 0
508 -551 0
-503 -508 551 0
-550 103 0
-551 103 0
550 551 -103 0
503 552 0
-503 -552 0
552 -553 0
505 -553 0
-552 -505 553 0
503 -554 0
509 -554 0
-503 -509 554 0
-553 104 0
-554 104 0
553 554 -104 0
503 555 0
-503 -555 0
555 -556 0
506 -556 0
-555 -506 556 0
503 -557 0
510 -557 0
-503 -510 557 0
-556 105 0
-557 105 0
556 557 -105 0
503 558 0
-503 -558 0
558 -559 0
507 -559 0
-558 -507 559 0
503 -560 0
511 -560 0
-503 -511 560 0
-559 106 0
-560 106 0
559 560 -106 0
503 561 0
-503 -561 0
561 -562 0
512 -562 0
-561 -512 562 0
503 -563 0
530 -563 0
-503 -530 563 0
-562 548 0
-563 548 0
562 563 -548 0
503 -564 0
546 -564 0
-503 -546 564 0
-564 565 0
-548 565 0
564 548 -565 0
565 611 0
-565 -611 0
611 -612 0
566 -612 0
-611 -566 612 0
565 -613 0
570 -613 0
-565 -570 613 0
-612 107 0
-613 107 0
612 613 -107 0
565 614 0
-565 -614 0
614 -615 0
567 -615 0
-614 -567 615 0
565 -616 0
571 -616 0
-565 -571 616 0
-615 108 0
-616 108 0
615 616 -108 0
565 617 0
-565 -617 0
617 -618 0
568 -618 0
-617 -568 618 0
565 -619 0
572 -619 0
-565 -572 619 0
-618 109 0
-619 109 0
618 619 -109 0
565 620 0
-565 -620 0
620 -621 0
569 -621 0
-620 -569 621 0
565 -622 0
573 -622 0
-565 -573 622 0
-621 110 0
-622 110 0
621 622 -110 0
565 623 0
-565 -623 0
623 -624 0
574 -624 0
-623 -574 624 0
565 -625 0
592 -625 0
-565 -592 625 0
-624 610 0
-625 610 0
624 625 -610 0
565 -626 0
608 -626 0
-565 -608 626 0
-626 627 0
-610 627 0
626 610 -627 0
627 643 0
-627 -643 0
643 -644 0
628 -644 0
-643 -628 644 0
627 -645 0
629 -645 0
-627 -629 645 0
-644 111 0
-645 111 0
644 645 -111 0
627 646 0
-627 -646 0
646 -647 0
630 -647 0
-646 -630 647 0
627 -648 0
636 -648 0
-627 -636 648 0
-647 642 0
-648 642 0
647 648 -642 0
627 -649 0
640 -649 0
-627 -640 649 0
-649 650 0
-642 650 0
649 642 -650 0
650 -112 0
-650 112 0
